=1
=2
=0IBM ILOG CPLEX   42.1.0 cb854401 Feb 1, 2023           LEG x86 64bit/Linux    
=1
--- GAMS/Cplex licensed for continuous and discrete problems.
=2
=C
=1
=CReading parameter(s) from "/storage/home/ejm6426/scratch/rtRBA-main/parameterization/kapp/datasets/Rabinowitz2023_batchGlc/min_flux_violation/cplex.opt"
=C>>  optcr = 1E-12
=C>>  optca = 1E-12
=C>>  eprhs = 1E-9
=C>> 
=CFinished reading from "/storage/home/ejm6426/scratch/rtRBA-main/parameterization/kapp/datasets/Rabinowitz2023_batchGlc/min_flux_violation/cplex.opt"
=2
=C
=1
--- GMO setup time: 0.00s
=2
=1
--- Space for names approximately 0.57 Mb
=2
=1
--- Use option 'names no' to turn use of names off
=2
=1
--- GMO memory 7.14 Mb (peak 7.23 Mb)
=2
=1
--- Dictionary memory 0.00 Mb
=2
=1
--- Cplex 22.1.1.0 link memory 0.31 Mb (peak 2.22 Mb)
=2
=1
--- Starting Cplex
=2
=C
Version identifier: 22.1.1.0 | 2022-11-28 | 9160aff4d
CPXPARAM_Advance                                 2
CPXPARAM_Threads                                 1
CPXPARAM_MIP_Display                             4
CPXPARAM_MIP_Pool_Capacity                       0
CPXPARAM_Simplex_Limits_Iterations               1000000
CPXPARAM_Simplex_Tolerances_Feasibility          1.0000000000000001e-09
CPXPARAM_TimeLimit                               1000000
CPXPARAM_MIP_Tolerances_AbsMIPGap                9.9999999999999998e-13
CPXPARAM_MIP_Tolerances_MIPGap                   9.9999999999999998e-13
Tried aggregator 1 time.
LP Presolve eliminated 3039 rows and 8923 columns.
Aggregator did 1671 substitutions.
Reduced LP has 955 rows, 2088 columns, and 14346 nonzeros.
Presolve time = 0.07 sec. (20.10 ticks)

Iteration log . . .
Iteration:     1   Dual objective     = -2796495284373.406738
Iteration:    62   Dual objective     = -210035727408.444031
Iteration:   179   Dual objective     =       3896785.756419
Markowitz threshold set to 0.1
Iteration:   269   Dual objective     =      20291706.764563
Removing shift (14).
Iteration:   291   Dual objective     =      20231706.899460
=C
=1
--- LP status (3): infeasible.
=2
=1
--- Cplex Time: 0.10sec (det. 63.22 ticks)

=2
=C
=CModel has been proven infeasible
=C
